39, 663
1216, 469
1133, 373
802, 398
572, 452
640, 385
289, 326
868, 296
360, 225
319, 254
464, 443
504, 283
356, 284
1224, 299
1116, 285
923, 264
1065, 387
471, 268
588, 107
269, 440
950, 468
1150, 467
697, 196
404, 139
937, 214
569, 234
931, 342
416, 437
999, 115
983, 224
1155, 198
371, 230
475, 148
329, 322
362, 301
577, 345
432, 301
988, 170
569, 306
303, 447